# Objective value = 13
x1 0
x2 0
x3 0
x4 0
x5 0
x6 0
x7 0
x8 0
x9 0
x10 0
x11 0
x12 0
x13 0
x14 1
x15 1
x16 0
x17 1
x18 0
x19 0
x20 0
x21 0
x22 0
x23 0
x24 0
x25 0
x26 1
x27 0
x28 0
x29 1
x30 0
x31 0
x32 0
x33 0
x34 0
x35 0
x36 0
x37 0
x38 0
x39 0
x40 0
x41 0
x42 0
x43 0
x44 0
x45 0
x46 0
x47 0
x48 0
x49 0
x50 0
x51 0
x52 0
x53 0
x54 0
x55 0
x56 0
x57 0
x58 1
x59 0
x60 0
x61 1
x62 0
x63 0
x64 1
x65 0
x66 1
x67 0
x68 0
x69 0
x70 0
x71 0
x72 0
x73 0
x74 0
x75 0
x76 0
x77 0
x78 0
x79 0
x80 0
x81 0
x82 0
x83 0
x84 0
x85 0
x86 0
x87 0
x88 0
x89 0
x90 0
x91 0
x92 0
x93 0
x94 0
x95 0
x96 0
x97 1
x98 0
x99 0
x100 0
x101 0
x102 1
x103 0
x104 0
x105 0
x106 0
x107 0
x108 0
x109 0
x110 0
x111 0
x112 0
x113 0
x114 0
x115 0
x116 1
x117 0
x118 0
x119 1
x120 0
